(declare-fun b32 () (_ FloatingPoint 8 24))
(declare-fun b35 () (_ FloatingPoint 8 24))
(declare-fun b62 () (_ FloatingPoint 8 24))
(declare-fun b20 () (_ FloatingPoint 8 24))
(declare-fun b10 () (_ FloatingPoint 8 24))
(declare-fun b14 () (_ FloatingPoint 8 24))
(declare-fun b68 () (_ FloatingPoint 8 24))
(declare-fun b71 () (_ FloatingPoint 8 24))
(declare-fun b44 () (_ FloatingPoint 8 24))
(declare-fun b29 () (_ FloatingPoint 8 24))
(declare-fun b59 () (_ FloatingPoint 8 24))
(declare-fun b23 () (_ FloatingPoint 8 24))
(declare-fun b41 () (_ FloatingPoint 8 24))
(declare-fun b65 () (_ FloatingPoint 8 24))
(declare-fun b119 () (_ FloatingPoint 8 24))
(declare-fun b17 () (_ FloatingPoint 8 24))
(declare-fun b11 () (_ FloatingPoint 8 24))
(declare-fun b26 () (_ FloatingPoint 8 24))
(declare-fun b50 () (_ FloatingPoint 8 24))
(declare-fun b122 () (_ FloatingPoint 8 24))
(declare-fun b56 () (_ FloatingPoint 8 24))
(declare-fun b53 () (_ FloatingPoint 8 24))
(declare-fun b47 () (_ FloatingPoint 8 24))
(declare-fun b38 () (_ FloatingPoint 8 24))
(assert (let ((.def_132 (fp.lt b68 b122)))
(let ((.def_130 (fp.lt b119 b68)))
(let ((.def_128 (fp.lt b65 b122)))
(let ((.def_126 (fp.lt b119 b65)))
(let ((.def_124 (fp.lt b62 b122)))
(let ((.def_122 (fp.lt b119 b62)))
(let ((.def_120 (fp.lt b59 b122)))
(let ((.def_118 (fp.lt b119 b59)))
(let ((.def_116 (fp.lt b56 b122)))
(let ((.def_114 (fp.lt b119 b56)))
(let ((.def_112 (fp.lt b53 b122)))
(let ((.def_110 (fp.lt b119 b53)))
(let ((.def_108 (fp.lt b50 b122)))
(let ((.def_106 (fp.lt b119 b50)))
(let ((.def_104 (fp.lt b47 b122)))
(let ((.def_102 (fp.lt b119 b47)))
(let ((.def_100 (fp.lt b44 b122)))
(let ((.def_98 (fp.lt b119 b44)))
(let ((.def_96 (fp.lt b41 b122)))
(let ((.def_94 (fp.lt b119 b41)))
(let ((.def_92 (fp.lt b38 b122)))
(let ((.def_90 (fp.lt b119 b38)))
(let ((.def_88 (fp.lt b35 b122)))
(let ((.def_86 (fp.lt b119 b35)))
(let ((.def_84 (fp.lt b32 b122)))
(let ((.def_82 (fp.lt b119 b32)))
(let ((.def_80 (fp.lt b29 b122)))
(let ((.def_78 (fp.lt b119 b29)))
(let ((.def_76 (fp.lt b26 b122)))
(let ((.def_74 (fp.lt b119 b26)))
(let ((.def_72 (fp.lt b23 b122)))
(let ((.def_70 (fp.lt b119 b23)))
(let ((.def_68 (fp.lt b20 b122)))
(let ((.def_66 (fp.lt b119 b20)))
(let ((.def_64 (fp.lt b17 b122)))
(let ((.def_62 (fp.lt b119 b17)))
(let ((.def_60 (fp.lt b14 b122)))
(let ((.def_58 (fp.lt b119 b14)))
(let ((.def_56 (fp.lt b11 b122)))
(let ((.def_13 (fp.mul RNE b11 b10)))
(let ((.def_15 (fp.mul RNE .def_13 b14)))
(let ((.def_17 (fp.mul RNE .def_15 b17)))
(let ((.def_19 (fp.mul RNE .def_17 b20)))
(let ((.def_21 (fp.mul RNE .def_19 b23)))
(let ((.def_23 (fp.mul RNE .def_21 b26)))
(let ((.def_25 (fp.mul RNE .def_23 b29)))
(let ((.def_27 (fp.mul RNE .def_25 b32)))
(let ((.def_29 (fp.mul RNE .def_27 b35)))
(let ((.def_31 (fp.mul RNE .def_29 b38)))
(let ((.def_33 (fp.mul RNE .def_31 b41)))
(let ((.def_35 (fp.mul RNE .def_33 b44)))
(let ((.def_37 (fp.mul RNE .def_35 b47)))
(let ((.def_39 (fp.mul RNE .def_37 b50)))
(let ((.def_41 (fp.mul RNE .def_39 b53)))
(let ((.def_43 (fp.mul RNE .def_41 b56)))
(let ((.def_45 (fp.mul RNE .def_43 b59)))
(let ((.def_47 (fp.mul RNE .def_45 b62)))
(let ((.def_49 (fp.mul RNE .def_47 b65)))
(let ((.def_51 (fp.mul RNE .def_49 b68)))
(let ((.def_53 (fp.lt .def_51 b71)))
(let ((.def_11 (fp.lt b119 b11)))
(let ((.def_54 (and .def_11 .def_53)))
(let ((.def_57 (and .def_54 .def_56)))
(let ((.def_59 (and .def_57 .def_58)))
(let ((.def_61 (and .def_59 .def_60)))
(let ((.def_63 (and .def_61 .def_62)))
(let ((.def_65 (and .def_63 .def_64)))
(let ((.def_67 (and .def_65 .def_66)))
(let ((.def_69 (and .def_67 .def_68)))
(let ((.def_71 (and .def_69 .def_70)))
(let ((.def_73 (and .def_71 .def_72)))
(let ((.def_75 (and .def_73 .def_74)))
(let ((.def_77 (and .def_75 .def_76)))
(let ((.def_79 (and .def_77 .def_78)))
(let ((.def_81 (and .def_79 .def_80)))
(let ((.def_83 (and .def_81 .def_82)))
(let ((.def_85 (and .def_83 .def_84)))
(let ((.def_87 (and .def_85 .def_86)))
(let ((.def_89 (and .def_87 .def_88)))
(let ((.def_91 (and .def_89 .def_90)))
(let ((.def_93 (and .def_91 .def_92)))
(let ((.def_95 (and .def_93 .def_94)))
(let ((.def_97 (and .def_95 .def_96)))
(let ((.def_99 (and .def_97 .def_98)))
(let ((.def_101 (and .def_99 .def_100)))
(let ((.def_103 (and .def_101 .def_102)))
(let ((.def_105 (and .def_103 .def_104)))
(let ((.def_107 (and .def_105 .def_106)))
(let ((.def_109 (and .def_107 .def_108)))
(let ((.def_111 (and .def_109 .def_110)))
(let ((.def_113 (and .def_111 .def_112)))
(let ((.def_115 (and .def_113 .def_114)))
(let ((.def_117 (and .def_115 .def_116)))
(let ((.def_119 (and .def_117 .def_118)))
(let ((.def_121 (and .def_119 .def_120)))
(let ((.def_123 (and .def_121 .def_122)))
(let ((.def_125 (and .def_123 .def_124)))
(let ((.def_127 (and .def_125 .def_126)))
(let ((.def_129 (and .def_127 .def_128)))
(let ((.def_131 (and .def_129 .def_130)))
(let ((.def_133 (and .def_131 .def_132)))
.def_133))))))))))))))))))))))))))))))))))))))))))))))))))))))))))))))))))))))))))))))))))))))))))))))))))))))
(check-sat)
